NAME: A-n36-f6
COMMENT : -
TYPE : GVRP
DIMENSION : 41
EDGE_WEIGHT_TYPE : EUC_2D
CAPACITY : 100
AUTONOMY : 61
DEPOT_COORD_SECTION
1 38 46
CUSTOMER_COORD_SECTION
2 59 46
3 96 42
4 47 61
5 26 15
6 66 6
7 96 7
8 37 25
9 68 92
10 78 84
11 82 28
12 93 90
13 74 42
14 60 20
15 78 58
16 36 48
17 45 36
18 73 57
19 10 91
20 98 51
21 92 62
22 43 42
23 53 25
24 78 65
25 72 79
26 37 88
27 16 73
28 75 96
29 11 66
30 9 49
31 25 72
32 8 68
33 12 61
34 50 2
35 26 54
36 18 89
37 22 53
AFS_COORD_SECTION
38 75 11
39 65 89
40 24 17
41 85 50
42 24 77
EOF